Example_III/other_models/137/model_137_Log_1_cores.log

Gurobi 9.0.2 (linux64) logging started Mon Sep 14 07:35:12 2020

Changed value of parameter LogFile to model_137_Log_1_cores.log
   Prev:   Default: 
Changed value of parameter Threads to 1
   Prev: 0  Min: 0  Max: 1024  Default: 0
Gurobi Optimizer version 9.0.2 build v9.0.2rc0 (linux64)
Optimize a model with 10716 rows, 38880 columns and 175054 nonzeros
Model fingerprint: 0xf4b44d67
Variable types: 0 continuous, 38880 integer (38880 binary)
Coefficient statistics:
  Matrix range     [1e+00, 6e+01]
  Objective range  [1e+00, 1e+00]
  Bounds range     [1e+00, 1e+00]
  RHS range        [1e+00, 3e+02]
Presolve removed 658 rows and 817 columns
Presolve time: 0.32s
Presolved: 10058 rows, 38063 columns, 163544 nonzeros
Variable types: 0 continuous, 38063 integer (38063 binary)

Root relaxation: objective 1.000000e+00, 2722 iterations, 0.11 seconds

    Nodes    |    Current Node    |     Objective Bounds      |     Work
 Expl Unexpl |  Obj  Depth IntInf | Incumbent    BestBd   Gap | It/Node Time

     0     0    1.00000    0  229          -    1.00000      -     -    2s
     0     0    1.00000    0  345          -    1.00000      -     -    2s
     0     0    1.00000    0  352          -    1.00000      -     -    2s
     0     0    1.00000    0  211          -    1.00000      -     -    3s
     0     0    1.00000    0  285          -    1.00000      -     -    3s
     0     0    1.00000    0  237          -    1.00000      -     -    4s
     0     0    1.00000    0  388          -    1.00000      -     -    4s
     0     0    1.00000    0  217          -    1.00000      -     -    5s
     0     0    1.00000    0  274          -    1.00000      -     -    5s
     0     0    1.00000    0  231          -    1.00000      -     -    5s
     0     0    1.00000    0  209          -    1.00000      -     -    6s
     0     2    1.00000    0  200          -    1.00000      -     -    7s
   117    13    1.00000   18  373          -    1.00000      -   360   10s
   399    50    1.00000   59  505          -    1.00000      -   392   15s
   571    17    1.00000   70  238          -    1.00000      -   505   20s
   715    27    1.00000   70  243          -    1.00000      -   593   25s
   827    29    1.00000   80  224          -    1.00000      -   725   30s
   967    18    1.00000   79  360          -    1.00000      -   723   35s
  1193   195    1.00000  166  209          -    1.00000      -   623   41s
  1198   198    1.00000  132  378          -    1.00000      -   621   46s
  1204   202    1.00000  155  272          -    1.00000      -   618   51s
  1208   205    1.00000  186  279          -    1.00000      -   616   55s
  1211   207    1.00000  190  237          -    1.00000      -   614   60s
  1216   208 infeasible   15               -    1.00000      -   353   65s
  1227   209    1.00000   19  220          -    1.00000      -   351   70s
  1289   204    1.00000   29  196          -    1.00000      -   341   75s
  1361   221    1.00000   62  225          -    1.00000      -   326   80s
  1470   292    1.00000  119  179          -    1.00000      -   312   85s
  1631   399    1.00000  208   94          -    1.00000      -   293   90s
  1841   514    1.06250  219   84          -    1.00000      -   274   95s
  2167   821    2.00000  348  362          -    1.00000      -   236  100s
  2178   832    2.00000  350  315          -    1.00000      -   239  105s
  2240   894    2.00000  377  260          -    1.00000      -   240  110s
  2496  1107    1.00000  212  101          -    1.00000      -   220  115s
  2921  1486    1.06250  265   55          -    1.00000      -   198  120s
  3342  1895    2.00043  394  174          -    1.00000      -   178  125s
H 3593  2125                       5.0000000    1.00000  80.0%   169  128s
H 3593  2125                       4.0000000    1.00000  75.0%   169  128s
H 3620  1868                       3.0000000    1.00000  66.7%   168  129s
  3639  1875    1.00000  247   66    3.00000    1.00000  66.7%   167  130s
H 3647   390                       2.0000000    1.00000  50.0%   167  130s
  3651   394    1.00000   94  323    2.00000    1.00000  50.0%   167  136s
  3654   396    1.00000  117  224    2.00000    1.00000  50.0%   167  142s
  3657   398    1.00000   94  303    2.00000    1.00000  50.0%   166  145s
  3659   400    1.00000  161  380    2.00000    1.00000  50.0%   166  150s
  3662   402    1.00000  256  188    2.00000    1.00000  50.0%   166  155s
  3664   403    1.00000  175  176    2.00000    1.00000  50.0%   166  160s
  3666   404    1.00000   94  185    2.00000    1.00000  50.0%   166  165s
  3670   407    1.00000  114  115    2.00000    1.00000  50.0%   166  172s
  3671   408    1.00000  240   80    2.00000    1.00000  50.0%   166  175s
  3674   412    1.00000   27   71    2.00000    1.00000  50.0%   272  180s
* 3701   385              40       1.0000000    1.00000  0.00%   270  181s

Cutting planes:
  Gomory: 11
  Cover: 77
  Clique: 144
  MIR: 11
  StrongCG: 11
  Flow cover: 68
  Zero half: 17
  RLT: 2

Explored 3702 nodes (1861400 simplex iterations) in 181.54 seconds
Thread count was 1 (of 80 available processors)

Solution count 5: 1 2 3 ... 5

Optimal solution found (tolerance 1.00e-04)
Best objective 1.000000000000e+00, best bound 1.000000000000e+00, gap 0.0000%
